NAME: kroD50
TYPE: TSP
COMMENT: 50-city problem D (Krolak/Felts/Nelson)
DIMENSION: 50
EDGE_WEIGHT_TYPE : EUC_2D
NODE_COORD_SECTION
1 2995 264
2 202 233
3 981 848
4 1346 408
5 781 670
6 1009 1001
7 2927 1777
8 2982 949
9 555 1121
10 464 1302
11 3452 637
12 571 1982
13 2656 128
14 1623 1723
15 2067 694
16 1725 927
17 3600 459
18 1109 1196
19 366 339
20 778 1282
21 386 1616
22 3918 1217
23 3332 1049
24 2597 349
25 811 1295
26 241 1069
27 2658 360
28 394 1944
29 3786 1862
30 264 36
31 2050 1833
32 3538 125
33 1646 1817
34 2993 624
35 547 25
36 3373 1902
37 460 267
38 3060 781
39 1828 456
40 1021 962
41 2347 388
42 3535 1112
43 1529 581
44 1203 385
45 1787 1902
46 2740 1101
47 555 1753
48 47 363
49 3935 540
50 3062 329
EOF
